solving instance uflp nlass holmberg 32 exp
Set parameter TokenServer to value "licences.gerad.lan"
Set parameter MIPGap to value 1e-06
Set parameter FuncPieceError to value 1e-06
Set parameter Threads to value 1
Set parameter FuncPieces to value -2
Set parameter TimeLimit to value 3600
Gurobi Optimizer version 12.0.2 build v12.0.2rc0 (linux64 - "AlmaLinux 9.6 (Sage Margay)")

CPU model: Intel(R) Xeon(R) Gold 6258R CPU @ 2.70GHz, instruction set [SSE2|AVX|AVX2|AVX512]
Thread count: 56 physical cores, 56 logical processors, using up to 1 threads

Non-default parameters:
TimeLimit  3600
MIPGap  1e-06
Threads  1
FuncPieces  -2
FuncPieceError  1e-06

Optimize a model with 22650 rows, 31530 columns and 54000 nonzeros
Model fingerprint: 0x11af3da6
Model has 9000 function constraints treated as nonlinear
  4500 EXP, 4500 POW
Variable types: 27000 continuous, 4530 integer (4530 binary)
Coefficient statistics:
  Matrix range     [5e-01, 4e+03]
  Objective range  [1e+00, 7e+02]
  Bounds range     [1e+00, 1e+10]
  RHS range        [1e+00, 2e+03]
Warning: Model contains large bounds
         Consider reformulating model or setting NumericFocus parameter
         to avoid numerical issues.
Warning: 0 <= x < 1e-10 in domain of pow(x,a) with a=-1.000.
         Setting lower bound to 1e-10.
Presolve removed 9000 rows and 9000 columns
Presolve time: 0.23s
Presolved: 54150 rows, 22531 columns, 112500 nonzeros
Presolved model has 4500 bilinear constraint(s)
Presolved model has 4500 nonlinear constraint(s)

Solving non-convex MINLP

Variable types: 18001 continuous, 4530 integer (4530 binary)
Found heuristic solution: objective 137243.68104
Root relaxation presolved: 40650 rows, 13530 columns, 85500 nonzeros


Root relaxation: objective 1.879531e+04, 1233 iterations, 0.27 seconds (0.23 work units)

    Nodes    |    Current Node    |     Objective Bounds      |     Work
 Expl Unexpl |  Obj  Depth IntInf | Incumbent    BestBd   Gap | It/Node Time

     0     0 18795.3052    0  836 137243.681 18795.3052  86.3%     -    0s
H    0     0                    21831.184065 18795.3052  13.9%     -    0s
H    0     0                    21807.217568 18795.3052  13.8%     -    1s
H    0     0                    21785.218586 18795.3052  13.7%     -    1s
     0     0 20872.1735    0  564 21785.2186 20872.1735  4.19%     -    1s
     0     0 20876.9085    0  576 21785.2186 20876.9085  4.17%     -    1s
     0     0 21563.0506    0  466 21785.2186 21563.0506  1.02%     -    2s
     0     0 21565.4240    0  476 21785.2186 21565.4240  1.01%     -    2s
     0     0 21710.1857    0  209 21785.2186 21710.1857  0.34%     -    2s
     0     0 21710.1857    0  815 21785.2186 21710.1857  0.34%     -    3s
     0     0 21710.1857    0  276 21785.2186 21710.1857  0.34%     -    3s
     0     0 21710.1857    0  276 21785.2186 21710.1857  0.34%     -    3s
     0     0 21710.1857    0  215 21785.2186 21710.1857  0.34%     -    3s
     0     0 21710.1857    0  215 21785.2186 21710.1857  0.34%     -    3s
     0     0 21756.9289    0  168 21785.2186 21756.9289  0.13%     -    3s
     0     0 21756.9289    0  739 21785.2186 21756.9289  0.13%     -    3s
     0     0 21756.9289    0  278 21785.2186 21756.9289  0.13%     -    3s
     0     0 21756.9289    0  178 21785.2186 21756.9289  0.13%     -    3s
     0     0 21763.9855    0  173 21785.2186 21763.9855  0.10%     -    3s
     0     0 21763.9855    0  173 21785.2186 21763.9855  0.10%     -    3s
     0     0 21764.4629    0  169 21785.2186 21764.4629  0.10%     -    3s
     0     0 21764.4629    0  169 21785.2186 21764.4629  0.10%     -    3s
     0     0 21780.2869    0   16 21785.2186 21780.2869  0.02%     -    3s
     0     0 21780.2869    0  615 21785.2186 21780.2869  0.02%     -    3s
     0     0 21780.2869    0  255 21785.2186 21780.2869  0.02%     -    3s
     0     0 21780.2869    0   52 21785.2186 21780.2869  0.02%     -    3s
     0     0 21780.2869    0   26 21785.2186 21780.2869  0.02%     -    3s
     0     0 21780.2869    0   26 21785.2186 21780.2869  0.02%     -    3s
     0     0 21783.7566    0   20 21785.2186 21783.7566  0.01%     -    3s
     0     0 21784.9897    0    5 21785.2186 21784.9897  0.00%     -    4s
     0     0 21784.9897    0    5 21785.2186 21784.9897  0.00%     -    4s
     0     0 21785.1042    0    5 21785.2186 21785.1042  0.00%     -    4s
     0     0 21785.1042    0    5 21785.2186 21785.1042  0.00%     -    4s
     0     0 21785.1086    0    5 21785.2186 21785.1086  0.00%     -    4s
     0     0 21785.1086    0  430 21785.2186 21785.1086  0.00%     -    4s
     0     0 21785.1086    0  190 21785.2186 21785.1086  0.00%     -    4s
     0     0 21785.1086    0   58 21785.2186 21785.1086  0.00%     -    4s
     0     0 21785.1086    0   20 21785.2186 21785.1086  0.00%     -    4s
     0     0 21785.1086    0   20 21785.2186 21785.1086  0.00%     -    4s
     0     0 21785.1086    0   10 21785.2186 21785.1086  0.00%     -    4s
     0     0 21785.1086    0    5 21785.2186 21785.1086  0.00%     -    4s
     0     0 21785.1086    0    5 21785.2186 21785.1086  0.00%     -    4s
     0     0 21785.1636    0    5 21785.2186 21785.1636  0.00%     -    4s
     0     0 21785.1636    0    5 21785.2186 21785.1636  0.00%     -    4s
     0     0 21785.1636    0    5 21785.2186 21785.1636  0.00%     -    4s
     0     0 21785.1636    0    6 21785.2186 21785.1636  0.00%     -    4s
     0     0     cutoff    0      21785.2186 21785.2186  0.00%     -    4s

Cutting planes:
  Gomory: 1
  Implied bound: 1
  MIR: 1
  Flow cover: 2
  Relax-and-lift: 2

Explored 1 nodes (17992 simplex iterations) in 4.36 seconds (1.98 work units)
Thread count was 1 (of 56 available processors)

Solution count 5: 21785.2 21785.2 21807.2 ... 137244

Optimal solution found (tolerance 1.00e-06)
Best objective 2.178521858566e+04, best bound 2.178521858566e+04, gap 0.0000%

User-callback calls 1386, time in user-callback 0.00 sec
reading holmberg data file ../../../../../instances/uflp/holmberg/p32
primal_bound = 21785.218585662697, dual_bound = 21785.21858566045, gap = 1.0320166832121264e-11, time = 4.37
